1 -1 2 0
1 -3 -4 0
1 3 2 0
1 -3 -5 0
1 3 6 0
1 3 7 0
1 8 -9 0
1 8 10 0
1 -8 11 0
1 8 -5 0
1 -8 -12 0
1 8 -13 0
1 8 -7 0
1 -11 -10 0
1 11 12 0
1 11 8 0
1 5 -14 0
1 5 -15 0
1 5 16 0
1 7 -17 0
1 7 -14 0
1 7 11 0
1 7 18 0
1 7 -8 0
1 2 -19 0
1 -2 11 0
1 -2 3 0
1 -2 -6 0
1 -6 -20 0
1 6 21 0
1 -6 22 0
1 18 -9 0
1 -18 23 0
1 -23 -9 0
1 -23 20 0
1 23 12 0
1 24 9 0
1 -24 -10 0
1 -24 -25 0
1 -24 -26 0
1 24 -12 0
1 24 21 0
1 15 25 0
1 15 26 0
1 -15 -5 0
1 -15 24 0
1 15 27 0
1 -15 -7 0
1 13 10 0
1 -13 15 0
1 13 23 0
1 13 11 0
1 13 -28 0
1 -13 24 0
1 -13 -29 0
1 10 30 0
1 10 -31 0
1 -10 23 0
1 -10 28 0
1 10 -13 0
1 -10 -18 0
1 10 -8 0
1 12 -9 0
1 -12 32 0
1 12 -33 0
1 -12 34 0
1 12 -16 0
1 -12 24 0
1 12 -18 0
1 -12 8 0
1 12 -29 0
1 9 32 0
1 9 -15 0
1 -9 -23 0
1 -9 11 0
1 9 12 0
1 9 -35 0
1 -9 -16 0
1 -36 -31 0
1 -36 10 0
1 -36 -13 0
1 -31 10 0
1 31 14 0
1 31 25 0
1 31 -37 0
1 31 27 0
1 -28 -10 0
1 28 -26 0
1 28 35 0
1 -30 32 0
1 -30 37 0
1 30 27 0
1 -27 -30 0
1 -27 15 0
1 27 26 0
1 -27 24 0
1 26 -30 0
1 26 15 0
1 26 38 0
1 -37 31 0
1 -37 15 0
1 -37 38 0
1 -37 36 0
1 37 -39 0
1 37 -40 0
1 37 41 0
1 -37 29 0
1 -25 -30 0
1 -25 33 0
1 -25 -36 0
1 25 24 0
1 25 37 0
1 25 40 0
1 42 43 0
1 -42 -4 0
1 42 1 0
1 4 43 0
1 4 -3 0
1 44 -43 0
1 44 45 0
1 44 46 0
1 -44 47 0
1 44 48 0
1 -44 -49 0
1 -44 50 0
1 51 -45 0
1 -51 -47 0
1 51 -11 0
1 -51 48 0
1 -51 -49 0
1 -51 52 0
1 -45 -20 0
1 45 -51 0
1 45 4 0
1 45 53 0
1 45 -42 0
1 49 -45 0
1 49 20 0
1 -49 51 0
1 -49 21 0
1 49 53 0
1 -43 -4 0
1 -43 44 0
1 -43 -42 0
1 -48 -51 0
1 53 -46 0
1 53 20 0
1 -53 -52 0
1 53 18 0
1 -20 -45 0
1 20 23 0
1 20 -50 0
1 20 -6 0
1 -21 -45 0
1 -21 -54 0
1 -21 55 0
1 -21 56 0
1 -19 -45 0
1 -19 -15 0
1 19 -46 0
1 19 49 0
1 -19 -57 0
1 19 6 0
1 -47 -14 0
1 47 -19 0
1 -47 -21 0
1 -47 53 0
1 -50 14 0
1 50 -19 0
1 -50 51 0
1 50 -35 0
1 -50 58 0
1 -50 -53 0
1 50 44 0
1 46 20 0
1 -46 51 0
1 -46 -44 0
1 -52 19 0
1 -52 20 0
1 -52 51 0
1 -16 -14 0
1 16 -47 0
1 -16 -54 0
1 16 57 0
1 -14 -9 0
1 14 -54 0
1 -14 57 0
1 -14 6 0
1 14 7 0
1 35 17 0
1 35 9 0
1 -35 59 0
1 35 -28 0
1 -35 -50 0
1 -35 56 0
1 35 -22 0
1 -32 -30 0
1 -32 9 0
1 -32 -47 0
1 -32 54 0
1 32 55 0
1 -32 59 0
1 32 -35 0
1 32 57 0
1 -32 -56 0
1 55 -32 0
1 55 -14 0
1 55 60 0
1 -55 33 0
1 55 -41 0
1 -56 32 0
1 -56 19 0
1 -56 60 0
1 56 -33 0
1 -56 61 0
1 -56 35 0
1 56 16 0
1 56 -21 0
1 56 -41 0
1 56 -29 0
1 54 62 0
1 54 19 0
1 -54 63 0
1 -54 -64 0
1 54 65 0
1 -57 -62 0
1 57 -19 0
1 -33 -17 0
1 33 9 0
1 -33 -10 0
1 33 25 0
1 33 -66 0
1 33 -13 0
1 33 56 0
1 33 22 0
1 33 -29 0
1 29 9 0
1 29 17 0
1 29 -55 0
1 29 33 0
1 29 -66 0
1 29 12 0
1 29 -13 0
1 -29 -37 0
1 67 55 0
1 -67 59 0
1 -67 -56 0
1 67 -41 0
1 41 -17 0
1 -41 68 0
1 -41 69 0
1 41 -55 0
1 41 -67 0
1 41 59 0
1 41 -66 0
1 41 -34 0
1 41 70 0
1 41 22 0
1 41 -56 0
1 41 -65 0
1 66 -71 0
1 -66 72 0
1 -66 73 0
1 -66 41 0
1 -17 -71 0
1 -17 -72 0
1 -17 -38 0
1 -17 -67 0
1 -17 66 0
1 17 35 0
1 -17 7 0
1 -17 -74 0
1 -59 -67 0
1 59 -41 0
1 -22 32 0
1 -22 -67 0
1 -22 -33 0
1 22 -73 0
1 22 75 0
1 -38 68 0
1 38 25 0
1 -38 69 0
1 -38 -70 0
1 40 -68 0
1 40 69 0
1 -40 -34 0
1 40 -37 0
1 -72 -68 0
1 72 76 0
1 72 77 0
1 -72 66 0
1 -72 -34 0
1 72 -70 0
1 -72 39 0
1 -74 -17 0
1 74 76 0
1 74 70 0
1 74 -39 0
1 74 78 0
1 -70 72 0
1 70 -67 0
1 70 13 0
1 70 74 0
1 -69 -79 0
1 69 -70 0
1 69 80 0
1 69 74 0
1 -69 -40 0
1 34 -38 0
1 -34 67 0
1 -34 81 0
1 34 74 0
1 68 67 0
1 68 34 0
1 68 81 0
1 -68 73 0
1 82 76 0
1 -82 -39 0
1 -82 80 0
1 -82 78 0
1 80 -69 0
1 -80 -76 0
1 80 -39 0
1 80 73 0
1 80 -78 0
1 -83 76 0
1 83 -70 0
1 83 -78 0
1 -79 69 0
1 79 83 0
1 79 -78 0
1 78 83 0
1 78 -77 0
1 78 79 0
1 -78 74 0
1 -77 -74 0
1 -39 82 0
1 39 72 0
1 39 79 0
1 39 74 0
1 76 25 0
1 -76 -83 0
1 76 82 0
1 -76 39 0
1 -76 -80 0
1 -76 74 0
1 64 62 0
1 -64 -84 0
1 64 46 0
1 -64 -47 0
1 64 -85 0
1 64 86 0
1 64 52 0
1 62 -46 0
1 62 47 0
1 -62 64 0
1 -62 85 0
1 62 86 0
1 -62 -52 0
1 87 -54 0
1 87 86 0
1 -87 58 0
1 87 -57 0
1 -65 -84 0
1 -65 87 0
1 -65 86 0
1 -65 41 0
1 -88 45 0
1 88 60 0
1 88 -64 0
1 88 -86 0
1 88 65 0
1 86 -49 0
1 86 -89 0
1 84 -62 0
1 84 -64 0
1 -85 -62 0
1 -85 -48 0
1 60 90 0
1 -60 -38 0
1 60 -55 0
1 60 58 0
1 -60 -75 0
1 -75 91 0
1 -75 -90 0
1 -75 60 0
1 75 -59 0
1 -75 -58 0
1 75 -22 0
1 -92 -72 0
1 92 93 0
1 -92 -86 0
1 92 -58 0
1 -92 89 0
1 92 -61 0
1 89 90 0
1 89 63 0
1 89 93 0
1 89 -94 0
1 -89 -74 0
1 -89 -61 0
1 90 -60 0
1 -58 -71 0
1 -58 -90 0
1 -58 -60 0
1 58 73 0
1 -58 -65 0
1 91 -60 0
1 -91 87 0
1 -91 -75 0
1 -94 -92 0
1 -94 60 0
1 94 87 0
1 94 65 0
1 71 68 0
1 71 58 0
1 71 82 0
1 71 63 0
1 -71 -59 0
1 71 66 0
1 -71 -73 0
1 -71 -95 0
1 71 61 0
1 -71 -22 0
1 -73 66 0
1 -73 34 0
1 73 95 0
1 -73 61 0
1 -73 -22 0
1 -96 -93 0
1 -96 34 0
1 -96 -81 0
1 96 -61 0
1 81 63 0
1 -81 79 0
1 -81 -95 0
1 93 -71 0
1 93 -81 0
1 -93 -73 0
1 -93 89 0
1 -61 71 0
1 -61 93 0
1 -61 -81 0
1 -63 -81 0
1 63 -73 0
1 95 96 0
1 -95 -92 0
1 -95 -63 0
1 -95 -81 0
1 -95 73 0
1 -95 57 0
